WARNING: for repeatability, setting FPU to use double precision
============================[ Problem Statistics ]=============================
|                                                                             |
|  Number of variables:           277                                         |
|  Number of clauses:            1117                                         |
|  Parse time:                   0.00 s                                       |
|                                                                             |
============================[ Search Statistics ]==============================
| Conflicts |          ORIGINAL         |          LEARNT          | Progress |
|           |    Vars  Clauses Literals |    Limit  Clauses Lit/Cl |          |
===============================================================================
|       100 |     276     1113     3185 |      409       74      5 |  0.382 % |
===============================================================================
restarts              : 2
conflicts             : 106            (inf /sec)
decisions             : 132            (0.00 % random) (inf /sec)
propagations          : 5002           (inf /sec)
conflict literals     : 541            (31.69 % deleted)
Memory used           : 19.00 MB
CPU time              : 0 s

UNSATISFIABLE
